headline_hunt/bets/cascade_aux_encoding/comparisons/cadical_50k_full9_2026-04-25/bit6_sr61_n32_bit06_m024723f3_fill7fffffff_enf0.log
c --- [ banner ] -------------------------------------------------------------
c 
c CaDiCaL SAT Solver
c Copyright (c) 2016-2025
c A. Biere, M. Fleury, N. Froleyks, K. Fazekas, F. Pollitt, T. Faller
c JKU Linz, University of Freiburg, TU Wien
c 
c Version 3.0.0
c Apple clang version 17.0.0 (clang-1700.6.3.2) -Wall -Wextra -O3 -DNDEBUG -DNCLOSEFROM
c Tue Dec 23 21:53:38 UTC 2025 Darwin Tahoe-arm64.local 25.2.0 arm64
c 
c --- [ limit ] --------------------------------------------------------------
c 
c setting conflict limit to 50000 conflicts (due to '50000')
c 
c --- [ parsing input ] ------------------------------------------------------
c 
c reading DIMACS file from 'cnfs_n32/sr61_n32_bit06_m024723f3_fill7fffffff_enf0.cnf'
c opening file to read 'cnfs_n32/sr61_n32_bit06_m024723f3_fill7fffffff_enf0.cnf'
c found 'p cnf 11249 47048' header
c parsed 47048 clauses in 0.01 seconds process time
c 
c --- [ options ] ------------------------------------------------------------
c 
c   --seed=5                       (different from default '0')
c 
c --- [ solving ] ------------------------------------------------------------
c 
c time measured in process time since initialization
c 
c  seconds  reduction conflicts       size tier2       variables
c         MB    restarts   redundant    glue  trail         remaining
c          level     rate       size/glu tier1  irredundant
c 
c *  0.01  0  0 0   0  0    0    0 0.0 0 0 2 6  0% 46983 11248 100%
c (  0.01  0  0 0   0  0    0    0 0.0 0 0 2 6  0% 46983 11248 100%
c .  0.01  0  0 0   0  0    0    0 0.0 0 0 2 6  0% 46983 11248 100%
c c  0.02  0  0 0   0  0    0    0 0.0 0 0 2 6  0% 46173 11248 100%
c d  0.02  0  0 0   0  0    0    0 0.0 0 0 2 6  0% 44693 10508 93%
c 2  0.02  0  0 0   0  0    0    0 0.0 0 0 2 6  0% 44633 10508 93%
c f  0.04  0  0 0   0  0    0    0 0.0 0 0 2 6  0% 44567 10574 94%
c e  0.05  0  0 0   0  0    0    0 0.0 0 0 2 6  0% 41095 7208 64%
c P  0.05  0  0 0   0  0    0    0 0.0 0 0 2 6  0% 41095 7208 64%
c )  0.05  0  0 0   0  0    0    0 0.0 0 0 2 6  0% 41095 7208 64%
c {  0.05  0  0 0   0  0    0    0 0.0 0 0 2 6  0% 41095 7208 64%
c -  0.06  0 405 1  26 38  304  229 1.5 4 3 2 6  8% 41095 7208 64%
c -  0.06  0 201 2 108 26  740  485 1.5 6 4 2 6  5% 41095 7208 64%
c }  0.06  0 162 2 135 21 1001  664 1.6 6 4 2 6  4% 41095 7208 64%
c [  0.06  0  0 2 135  0 1001  664 0.0 0 0 2 6  0% 41095 7208 64%
c O  0.06  0 1095 2 135 1096 1002  665 2.5 176 71 2 6 40% 41095 7208 64%
c ]  0.07  0 1085 2 135 18 1064  725 2.1 166 78 2 6 37% 41095 7208 64%
c {  0.07  0 162 2 135 21 1064  725 1.6 6 4 2 6  4% 41095 7208 64%
c -  0.07  0 133 3 186 18 1421  787 1.6 6 4 2 6  4% 41095 7208 64%
c 2  0.07  0 106 3 228 13 2188 1345 1.7 7 4 2 6  3% 41036 7208 64%
c 
c  seconds   reduction conflicts       size tier2      variables
c         MB     restarts   redundant    glue  trail        remaining
c           level     rate       size/glu tier1  irredundant
c 
c d  0.08  0 106 3 228 13 2188 1235 1.7 7 4 2 6  3% 40920 7112 63%
c c  0.09  0 106 3 228 13 2188 1235 1.7 7 4 2 6  3% 40844 7112 63%
c d  0.09  0 106 3 228 13 2188 1154 1.7 7 4 2 6  3% 40814 7097 63%
c 2  0.09  0 106 3 228 13 2188 1153 1.7 7 4 2 6  3% 40801 7097 63%
c t  0.09  0 106 3 228 13 2188 1153 1.7 7 4 2 6  3% 40800 7097 63%
c -  0.10  0 103 4 228 13 2365 1089 1.7 7 4 2 6  4% 40800 7097 63%
c O  0.10  0 94 4 264 11 3003 1550 1.7 6 4 2 6  4% 40800 7097 63%
c -  0.10  0 94 5 324 12 3584 1785 1.7 7 4 2 6  5% 40800 7097 63%
c s  0.11  0 95 5 347 12 4125 2185 1.7 7 4 2 6  6% 40745 7097 63%
c t  0.11  0 95 5 347 12 4125 2185 1.7 7 4 2 6  6% 40740 7097 63%
c e  0.13  0 95 5 347 12 4125 2131 1.7 7 4 2 6  6% 40691 6553 58%
c s  0.13  0 95 5 347 12 4125 2131 1.7 7 4 2 6  6% 40671 6553 58%
c e  0.13  0 95 5 347 12 4125 2131 1.7 7 4 2 6  6% 40667 6546 58%
c c  0.15  0 96 5 387 12 4688 2044 1.7 7 4 2 6  7% 40475 6504 58%
c -  0.16  0 95 6 460 12 5080 1534 1.7 7 4 2 3  7% 40439 6486 58%
c }  0.16  0 96 6 482 12 5361 1746 1.7 7 4 2 3  7% 40439 6486 58%
c [  0.16  0 1085 6 482 18 5361 1746 2.1 166 78 2 6 59% 40439 6486 58%
c I  0.17  0 255 6 482  5 6004 2328 2.0 40 20 4 31 19% 40439 6486 58%
c ]  0.19  0 213 6 483  4 6437 2729 2.2 54 25 2 3 20% 40439 6486 58%
c {  0.19  0 96 6 483 12 6437 2729 1.7 7 4 2 3  7% 40439 6486 58%
c 
c  seconds  reduction conflicts       size tier2      variables
c         MB    restarts   redundant    glue  trail        remaining
c          level     rate       size/glu tier1  irredundant
c 
c -  0.20  0 99 7 597 14 6862 2177 1.8 9 5 2 3  8% 40439 6486 58%
c d  0.23  0 99 7 690 15 7291 2408 2.0 13 6 1 2  9% 40439 6464 57%
c c  0.24  0 99 7 690 15 7291 2407 2.0 13 6 1 2  9% 40302 6464 57%
c d  0.24  0 99 7 690 15 7291 2342 2.0 13 6 1 2  9% 40270 6448 57%
c 2  0.24  0 99 7 690 15 7291 2340 2.0 13 6 1 2  9% 40268 6448 57%
c =  0.25  0 99 7 690 15 7291 2322 2.0 13 6 1 2  9% 40247 6427 57%
c t  0.25  0 99 7 690 15 7291 2321 2.0 13 6 1 2  9% 40247 6427 57%
c f  0.26  0 99 7 690 15 7291 2321 2.0 13 6 1 2  9% 39859 6815 61%
c }  0.27  0 99 7 731 15 7437 2456 2.1 14 7 1 2  9% 39859 6815 61%
c [  0.27  0 213 7 731  4 7437 2456 2.2 54 25 2 3 19% 39859 6815 61%
c ]  0.33  0 197 7 731  3 7706 2706 2.7 85 31 2 3 26% 39859 6815 61%
c {  0.33  0 99 7 731 15 7706 2706 2.1 14 7 1 2  9% 39859 6815 61%
c -  0.42  0 100 8 1024 17 8932 2206 2.4 25 10 1 2 13% 39859 6815 61%
c }  0.43  0 100 8 1028 17 8948 2222 2.4 25 11 1 2 13% 39859 6815 61%
c [  0.43  0 197 8 1028  3 8948 2222 2.7 85 31 2 3 26% 39859 6815 61%
c ]  0.54  0 184 8 1028  3 9379 2636 2.9 135 46 1 2 36% 39859 6815 61%
c {  0.54  0 100 8 1028 17 9379 2636 2.4 25 11 1 2 13% 39859 6815 61%
c p  0.60  0 102 8 1175 18 9988 3773 2.5 31 13 1 2 14% 39859 6815 61%
c =  0.63  0 102 8 1175 18 9988 3719 2.5 31 13 1 2 14% 39857 6793 60%
c u  0.64  0 102 8 1175 18 9988 2814 2.5 31 13 1 2 14% 39791 6793 60%
c 
c  seconds   reductions conflicts       size   tier2      variables
c         MB     restarts    redundant     glue   trail        remaining
c           level      rate       size/glue  tier1  irredundant
c 
c v  0.64  0 102 8 1175 18 9988 2731 2.5 31 13 1 2 14% 39791 6793 60%
c w  0.64  0 102 8 1175 18 9988 2722 2.5 31 13 1 2 14% 39791 6793 60%
c x  0.65  0 102 8 1175 18 9988 2722 2.5 31 13 1 2 14% 39530 6793 60%
c t  0.65  0 102 8 1175 18 9988 2720 2.5 31 13 1 2 14% 39530 6793 60%
c 2  0.65  0 102 8 1175 18 9988 2718 2.5 31 13 1 2 14% 39522 6793 60%
c f  0.66  0 102 8 1175 18 9988 2708 2.5 31 13 1 2 14% 39385 6937 62%
c #  0.66  0 102 8 1180 18 10007 2727 2.5 32 13 1 2 14% 39385 6937 62%
c }  0.74  0 103 8 1437 19 11112 3748 2.5 38 15 1 2 16% 39385 6937 62%
c [  0.74  0 184 8 1437  3 11112 3748 2.9 135 46 1 2 35% 39385 6937 62%
c -  0.77  0 179 9 1437  3 11294 1974 3.0 138 46 1 2 36% 39385 6937 62%
c ]  0.92  0 171 9 1438  3 11993 2654 2.8 167 59 1 2 42% 39385 6937 62%
c {  0.92  0 103 9 1438 19 11993 2654 2.5 38 15 1 2 16% 39385 6937 62%
c d  0.98  0 105 9 1578 19 12772 3379 2.5 41 16 1 2 17% 39385 6933 62%
c p  0.98  0 105 9 1578 19 12772 4118 2.5 41 16 1 2 17% 39385 6933 62%
c 2  0.98  0 105 9 1578 19 12772 4118 2.5 41 16 1 2 17% 39383 6933 62%
c =  1.00  0 105 9 1578 19 12772 4118 2.5 41 16 1 2 17% 39382 6932 62%
c u  1.01  0 105 9 1578 19 12772 3740 2.5 41 16 1 2 17% 39382 6932 62%
c v  1.01  0 105 9 1578 19 12772 3578 2.5 41 16 1 2 17% 39382 6932 62%
c w  1.02  0 105 9 1578 19 12772 3578 2.5 41 16 1 2 17% 39382 6932 62%
c f  1.03  0 105 9 1578 19 12772 3565 2.5 41 16 1 2 17% 39327 6987 62%
c 
c  seconds   reductions   conflicts       size   tier2      variables
c         MB      restarts     redundant     glue   trail        remaining
c           level       rate        size/glue  tier1  irredundant
c 
c -  1.09  0 107 10 1747 19 13952 2297 2.5 44 17 1 2 18% 39327 6987 62%
c s  1.14  0 107 10 1836 19 14666 2958 2.5 47 18 1 2 18% 39149 6987 62%
c t  1.15  0 107 10 1836 19 14666 2958 2.5 47 18 1 2 18% 39148 6987 62%
c e  1.16  0 107 10 1836 19 14666 2097 2.5 47 18 1 2 18% 38909 6457 57%
c s  1.16  0 107 10 1836 19 14666 2065 2.5 47 18 1 2 18% 38450 6457 57%
c e  1.16  0 107 10 1836 19 14666 2064 2.5 47 18 1 2 18% 38433 6454 57%
c B  1.18  0 107 10 1876 18 15008 2379 2.6 47 18 1 2 22% 38432 6454 57%
c }  1.21  0 108 10 1929 18 15577 2901 2.5 48 19 1 2 23% 38432 6454 57%
c [  1.21  0 171 10 1929  3 15577 2901 2.8 167 59 1 2 50% 38432 6454 57%
c 2  1.21  0 171 10 1929  2 15637 2851 2.8 167 59 1 2 50% 38432 6454 57%
c p  1.22  0 171 10 1929  2 15637 3012 2.8 167 59 1 2 50% 38417 6450 57%
c t  1.24  0 171 10 1929  2 15637 3012 2.8 167 59 1 2 50% 38414 6450 57%
c f  1.25  0 171 10 1929  2 15637 2984 2.8 167 59 1 2 49% 38408 6479 58%
c ]  1.51  0 162 10 1929  2 16735 4027 2.6 177 69 1 2 52% 38408 6479 58%
c {  1.51  0 108 10 1929 18 16735 4027 2.5 48 19 1 2 23% 38408 6479 58%
c -  1.52  0 108 11 1957 18 16905 2237 2.5 48 19 1 2 23% 38408 6479 58%
c p  1.57  0 111 11 2040 17 18577 4215 2.5 48 19 1 2 21% 38408 6479 58%
c u  1.57  0 111 11 2040 17 18577 3856 2.5 48 19 1 2 21% 38408 6479 58%
c v  1.58  0 111 11 2040 17 18577 3580 2.5 48 19 1 2 21% 38408 6479 58%
c w  1.58  0 111 11 2040 17 18577 3580 2.5 48 19 1 2 21% 38408 6479 58%
c 
c  seconds   reductions   conflicts       size   tier2      variables
c         MB      restarts     redundant     glue   trail        remaining
c           level       rate        size/glue  tier1  irredundant
c 
c f  1.59  0 111 11 2040 17 18577 3401 2.5 48 19 1 2 21% 38483 6574 58%
c -  1.64  0 115 12 2137 16 20157 2490 2.5 47 18 1 2 21% 38483 6574 58%
c W  1.67  0 117 12 2137 15 21009 3202 2.5 45 18 1 2 20% 38483 6574 58%
c -  1.72  0 114 13 2199 14 23706 2979 2.4 42 17 1 2 18% 38483 6574 58%
c d  1.78  0 114 13 2372 14 24664 3852 2.4 43 18 1 2 18% 38475 6567 58%
c p  1.78  0 114 13 2372 14 24664 3888 2.4 43 18 1 2 18% 38475 6567 58%
c f  1.79  0 114 13 2372 14 24664 3862 2.4 43 18 1 2 18% 38488 6580 58%
c }  1.87  0 115 13 2538 14 26339 5418 2.4 45 18 1 2 20% 38488 6580 58%
c [  1.87  0 162 13 2538  2 26339 5418 2.6 177 69 1 2 51% 38488 6580 58%
c -  2.08  0 157 14 2539  2 27556 3792 2.5 175 69 1 2 51% 38488 6580 58%
c p  2.11  0 156 14 2540  2 27803 4366 2.5 172 69 1 2 51% 38488 6580 58%
c u  2.12  0 156 14 2540  2 27803 3749 2.5 172 69 1 2 51% 38488 6580 58%
c v  2.12  0 156 14 2540  2 27803 3492 2.5 172 69 1 2 51% 38488 6580 58%
c w  2.13  0 156 14 2540  2 27803 3489 2.5 172 69 1 2 51% 38488 6580 58%
c f  2.13  0 156 14 2540  2 27803 3356 2.5 172 69 1 2 50% 38555 6646 59%
c B  2.19  0 155 14 2540  2 28011 3562 2.5 174 69 1 2 51% 38555 6646 59%
c ]  2.28  0 154 14 2540  2 28588 4120 2.6 176 68 1 2 51% 38555 6646 59%
c {  2.28  0 115 14 2540 14 28588 4120 2.4 45 18 1 2 19% 38555 6646 59%
c s  2.40  0 115 14 2799 14 30113 5521 2.5 47 19 1 2 20% 38516 6646 59%
c t  2.40  0 115 14 2799 14 30113 5521 2.5 47 19 1 2 20% 38515 6646 59%
c 
c  seconds   reductions   conflicts       size   tier2      variables
c         MB      restarts     redundant     glue   trail        remaining
c           level       rate        size/glue  tier1  irredundant
c 
c e  2.41  0 115 14 2799 14 30113 4886 2.5 47 19 1 2 20% 38510 6628 59%
c s  2.41  0 115 14 2799 14 30113 4877 2.5 47 19 1 2 20% 38503 6628 59%
c -  2.52  0 116 15 3064 15 31706 3750 2.5 50 20 1 2 22% 38502 6628 59%
c 2  2.52  0 116 15 3064 15 31706 3748 2.5 50 20 1 2 22% 38502 6628 59%
c d  2.52  0 116 15 3064 15 31706 3741 2.5 50 20 1 2 22% 38495 6622 59%
c p  2.52  0 116 15 3064 15 31706 4128 2.5 50 20 1 2 22% 38495 6622 59%
c =  2.55  0 116 15 3064 15 31706 4119 2.5 50 20 1 2 22% 38486 6613 59%
c u  2.55  0 116 15 3064 15 31706 3739 2.5 50 20 1 2 22% 38486 6613 59%
c v  2.55  0 116 15 3064 15 31706 3588 2.5 50 20 1 2 22% 38486 6613 59%
c f  2.56  0 116 15 3064 15 31706 3532 2.5 50 20 1 2 22% 38509 6641 59%
c }  2.70  0 116 15 3366 15 33536 5261 2.5 54 21 1 2 23% 38509 6641 59%
c [  2.70  0 154 15 3366  2 33536 5261 2.6 176 68 1 2 51% 38509 6641 59%
c W  3.13  0 153 15 3368  2 36013 7617 2.5 184 73 1 2 52% 38509 6641 59%
c -  3.15  0 153 16 3368  2 36157 4104 2.5 183 72 1 2 52% 38509 6641 59%
c d  3.15  0 153 16 3368  2 36157 4103 2.5 183 72 1 2 52% 38506 6640 59%
c p  3.15  0 153 16 3368  2 36157 4410 2.5 183 72 1 2 52% 38506 6640 59%
c 2  3.15  0 153 16 3368  2 36157 4410 2.5 183 72 1 2 52% 38504 6640 59%
c u  3.16  0 153 16 3368  2 36157 4196 2.5 183 72 1 2 52% 38504 6640 59%
c v  3.16  0 153 16 3368  2 36157 3930 2.5 183 72 1 2 52% 38504 6640 59%
c w  3.16  0 153 16 3368  2 36157 3929 2.5 183 72 1 2 52% 38504 6640 59%
c 
c  seconds   reductions   conflicts        size   tier2      variables
c         MB      restarts     redundant      glue   trail        remaining
c           level       rate        size/glue   tier1  irredundant
c 
c f  3.16  0 153 16 3368  2 36157 3917 2.5 183 72 1 2 52% 38512 6644 59%
c ]  3.21  0 156 16 3368  2 37729 5431 2.5 166 68 1 2 47% 38512 6644 59%
c {  3.21  0 116 16 3368 15 37729 5431 2.5 54 21 1 2 23% 38512 6644 59%
c -  3.52  0 117 17 3829 15 40911 4440 2.6 61 24 1 2 25% 38512 6644 59%
c d  3.52  0 117 17 3829 15 40911 4438 2.6 61 24 1 2 25% 38512 6643 59%
c p  3.52  0 117 17 3829 15 40911 4699 2.6 61 24 1 2 25% 38512 6643 59%
c u  3.57  0 117 17 3829 15 40911 4464 2.6 61 24 1 2 25% 38510 6643 59%
c v  3.57  0 117 17 3829 15 40911 4194 2.6 61 24 1 2 25% 38510 6643 59%
c }  3.73  0 117 17 4146 15 43320 6414 2.6 63 25 1 2 26% 38510 6643 59%
c [  3.73  0 156 17 4146  2 43320 6414 2.5 166 68 1 2 47% 38510 6643 59%
c O  4.06  0 152 17 4146  2 45014 8033 2.5 172 68 1 2 49% 38510 6643 59%
c -  4.18  0 152 18 4147  2 45967 4880 2.5 170 67 1 2 48% 38510 6643 59%
c p  4.18  0 152 18 4147  2 45967 5123 2.5 170 67 1 2 48% 38510 6643 59%
c u  4.19  0 152 18 4147  2 45967 4851 2.5 170 67 1 2 48% 38510 6643 59%
c v  4.19  0 152 18 4147  2 45967 4572 2.5 170 67 1 2 48% 38510 6643 59%
c w  4.19  0 152 18 4147  2 45967 4569 2.5 170 67 1 2 48% 38510 6643 59%
c ]  4.34  0 151 18 4148  2 47037 5592 2.5 169 67 1 2 48% 38510 6643 59%
c {  4.34  0 117 18 4148 15 47037 5592 2.6 63 25 1 2 26% 38510 6643 59%
c }  4.56  0 118 18 4514 15 50001 8388 2.6 65 25 1 2 26% 38510 6643 59%
c ?  4.56  0 118 18 4514 15 50001 8388 2.6 65 25 1 2 26% 38510 6643 59%
c 
c --- [ result ] -------------------------------------------------------------
c 
c UNKNOWN
c 
c --- [ run-time profiling ] -------------------------------------------------
c 
c process time taken by individual solving procedures
c (percentage relative to process time for solving)
c 
c         4.03   88.57% search
c         2.10   46.25% stable
c         1.87   41.06% unstable
c         0.52   11.38% simplify
c         0.13    2.85% sweep
c         0.09    1.98% factor
c         0.09    1.96% vivify
c         0.08    1.73% congruence
c         0.05    1.20% walk
c         0.04    0.96% preprocess
c         0.04    0.92% elim
c         0.02    0.45% subsume
c         0.01    0.24% fastelim
c         0.01    0.18% probe
c         0.01    0.17% ternary
c         0.01    0.16% parse
c         0.01    0.11% backbone
c         0.00    0.06% lucky
c   =================================
c         4.55   99.84% solve
c 
c last line shows process time for solving
c (percentage relative to total process time)
c 
c --- [ statistics ] ---------------------------------------------------------
c 
c chronological:             15254        30.51 %  of conflicts
c conflicts:                 50001     10988.18    per second
c backbone:                 369548      3044.81 %  of vars
c decisions:                540182    118709.97    per second
c eliminated:                 4468        36.81 %  of all variables
c factored:                    888        13.27 %  of variables
c fixed:                         1         0.01 %  of all variables
c learned:                   46747        93.49 %  per conflict
c learned_lits:            6332100       100.00 %  learned literals
c minimized:                     0         0.00 %  learned literals
c shrunken:                 411782         6.50 %  learned literals
c minishrunken:            1509438        23.84 %  learned literals
c otfs:                       1964         3.93 %  of conflict
c propagations:           40239941         8.84 M  per second
c reduced:                   29492        58.98 %  per conflict
c rephased:                      9      5555.67    interval
c restarts:                   4514        11.08    interval
c stabilizing:                   9        27.94 %  of conflicts
c substituted:                1025         8.45 %  of all variables
c sweep equivs:                 53         1.99 %  of swept variables
c subsumed:                   6427         4.63 %  of all clauses
c strengthened:               4558         3.28 %  of all clauses
c ticks:                 264512208         6.72    propagation
c vivified:                   2204         1.59 %  of all clauses
c walked:                        2     25000.50    interval
c weakened:                  29554         2.88    average size
c congruence:                    8      6250.12    interval
c 
c seconds are measured in process time for solving
c 
c --- [ glue usage ] ---------------------------------------------------------
c 
c focused glue 1 used 180701 clauses 72.22% accumulated 72.22% tier1
c focused glue 2 used 31323 clauses 12.52% accumulated 84.74% tier2
c 
c stable glue 1 used 204557 clauses 76.41% accumulated 76.41% tier1
c stable glue 2 used 25499 clauses 9.525% accumulated 85.93% tier2
c 
c 
c --- [ resources ] ----------------------------------------------------------
c 
c total process time since initialization:         4.56    seconds
c total real time since initialization:            4.58    seconds
c maximum resident set size of process:        45440.00    MB
c 
c --- [ shutting down ] ------------------------------------------------------
c 
c exit 0
